NAME : n20w60.001.335.tour
COMMENT : Length = 335
COMMENT : Found by LKH [Keld Helsgaun] Tue May  2 05:18:25 2017
TYPE : TOUR
DIMENSION : 21
TOUR_SECTION
1
11
20
2
6
5
8
7
4
12
15
17
14
16
10
13
3
9
21
18
19
-1
EOF
